h=9;
w=9;
s=3;
b=[|2,0,5,0,7,6,0,3,0|4,3,0,1,0,5,0,0,0|0,0,0,0,0,4,0,0,9|0,0,0,6,0,3,4,5,2|6,9,0,4,5,7,3,0,1|0,0,0,0,8,1,0,6,7|7,0,1,0,6,8,0,9,0|0,0,0,5,4,2,0,0,0|0,2,0,0,1,0,6,4,3|];
t=[|0,0,1,1,1,0,1,1,0|0,1,1,1,0,1,0,1,0|1,1,0,0,1,0,1,0,1|0,1,1,0,1,1,0,1,0|0,1,0,0,1,1,1,0,1|1,1,0,0,0,1,1,0,1|1,0,1,1,0,0,0,1,1|1,0,1,1,0,0,1,1,0|1,0,0,1,1,1,0,0,1|];
